NAME 
ROWS
 N  OBJ
 L  R0      
 E  R1      
 E  R2      
 E  R3      
 E  R4      
 E  R5      
 E  R6      
 E  R7      
 E  R8      
 E  R9      
 E  R10     
 E  R11     
 E  R12     
 E  R13     
 E  R14     
 E  R15     
 E  R16     
 E  R17     
 E  R18     
 E  R19     
 E  R20     
 E  R21     
 E  R22     
 E  R23     
 E  R24     
 E  R25     
 E  R26     
 E  R27     
 E  R28     
 E  R29     
 E  R30     
 E  R31     
 E  R32     
 E  R33     
 E  R34     
 E  R35     
 E  R36     
 E  R37     
 E  R38     
 E  R39     
 E  R40     
COLUMNS
    MARKER    'MARKER'                 'INTORG'
    I0(3)     OBJ       -117
    I0(3)     R0        -120
    I0(3)     R1        2
    I0(3)     R40       1
    I1(3)     OBJ       -181
    I1(3)     R0        62
    I1(3)     R2        3
    I1(3)     R40       1
    I2(3)     OBJ       -85
    I2(3)     R0        -16
    I2(3)     R3        7
    I2(3)     R40       1
    I3(3)     OBJ       150
    I3(3)     R0        173
    I3(3)     R4        1
    I3(3)     R40       1
    I4(3)     OBJ       125
    I4(3)     R0        138
    I4(3)     R5        7
    I4(3)     R40       1
    I5(3)     OBJ       24
    I5(3)     R0        169
    I5(3)     R6        15
    I5(3)     R40       1
    I6(3)     OBJ       -162
    I6(3)     R0        -156
    I6(3)     R7        16
    I6(3)     R40       1
    I7(3)     OBJ       142
    I7(3)     R0        73
    I7(3)     R8        10
    I7(3)     R40       1
    I8(3)     OBJ       92
    I8(3)     R0        20
    I8(3)     R9        5
    I8(3)     R40       1
    I9(3)     OBJ       8
    I9(3)     R0        -132
    I9(3)     R10       15
    I9(3)     R40       1
    I10(3)    OBJ       -143
    I10(3)    R0        -167
    I10(3)    R11       18
    I10(3)    R40       1
    I11(3)    OBJ       -39
    I11(3)    R0        -157
    I11(3)    R12       14
    I11(3)    R40       1
    I12(3)    OBJ       -41
    I12(3)    R0        -45
    I12(3)    R13       13
    I12(3)    R40       1
    I13(3)    OBJ       27
    I13(3)    R0        -159
    I13(3)    R14       1
    I13(3)    R40       1
    I14(3)    OBJ       -180
    I14(3)    R0        -111
    I14(3)    R15       -1
    I14(3)    R40       1
    I15(3)    OBJ       31
    I15(3)    R0        62
    I15(3)    R16       6
    I15(3)    R40       1
    I16(3)    OBJ       -184
    I16(3)    R0        -125
    I16(3)    R17       12
    I16(3)    R40       1
    I17(3)    OBJ       -15
    I17(3)    R0        14
    I17(3)    R18       6
    I17(3)    R40       1
    I18(3)    OBJ       -7
    I18(3)    R0        198
    I18(3)    R19       11
    I18(3)    R40       1
    I19(2)    OBJ       63
    I19(2)    R0        177
    I19(2)    R40       1
    I20(3)    OBJ       -126
    I20(3)    R0        51
    I20(3)    R21       18
    I20(3)    R40       1
    I21(3)    OBJ       54
    I21(3)    R0        13
    I21(3)    R22       12
    I21(3)    R40       1
    I22(3)    OBJ       -154
    I22(3)    R0        -89
    I22(3)    R23       5
    I22(3)    R40       1
    I23(3)    OBJ       -61
    I23(3)    R0        114
    I23(3)    R24       17
    I23(3)    R40       1
    I24(3)    OBJ       97
    I24(3)    R0        -98
    I24(3)    R25       11
    I24(3)    R40       1
    I25(3)    OBJ       57
    I25(3)    R0        132
    I25(3)    R26       16
    I25(3)    R40       1
    I26(3)    OBJ       -77
    I26(3)    R0        140
    I26(3)    R27       17
    I26(3)    R40       1
    I27(3)    OBJ       -160
    I27(3)    R0        161
    I27(3)    R28       14
    I27(3)    R40       1
    I28(3)    OBJ       177
    I28(3)    R0        169
    I28(3)    R29       2
    I28(3)    R40       1
    I29(3)    OBJ       198
    I29(3)    R0        188
    I29(3)    R30       4
    I29(3)    R40       1
    I30(3)    OBJ       100
    I30(3)    R0        114
    I30(3)    R31       19
    I30(3)    R40       1
    I31(3)    OBJ       127
    I31(3)    R0        70
    I31(3)    R32       3
    I31(3)    R40       1
    I32(3)    OBJ       87
    I32(3)    R0        -53
    I32(3)    R33       5
    I32(3)    R40       1
    I33(3)    OBJ       -111
    I33(3)    R0        -89
    I33(3)    R34       10
    I33(3)    R40       1
    I34(3)    OBJ       60
    I34(3)    R0        121
    I34(3)    R35       17
    I34(3)    R40       1
    I35(3)    OBJ       11
    I35(3)    R0        53
    I35(3)    R36       -1
    I35(3)    R40       1
    I36(3)    OBJ       -134
    I36(3)    R0        -42
    I36(3)    R37       15
    I36(3)    R40       1
    I37(3)    OBJ       45
    I37(3)    R0        22
    I37(3)    R38       14
    I37(3)    R40       1
    MARKER    'MARKER'                 'INTEND'
    C38(39)   OBJ       -3
    C38(39)   R0        -5
    C38(39)   R1        13
    C38(39)   R2        2
    C38(39)   R3        13
    C38(39)   R4        2
    C38(39)   R5        14
    C38(39)   R6        1
    C38(39)   R7        8
    C38(39)   R8        8
    C38(39)   R9        16
    C38(39)   R10       18
    C38(39)   R11       -1
    C38(39)   R12       14
    C38(39)   R13       2
    C38(39)   R14       9
    C38(39)   R15       5
    C38(39)   R16       9
    C38(39)   R17       10
    C38(39)   R18       18
    C38(39)   R19       2
    C38(39)   R20       3
    C38(39)   R21       4
    C38(39)   R22       2
    C38(39)   R23       17
    C38(39)   R24       8
    C38(39)   R25       7
    C38(39)   R26       -1
    C38(39)   R27       15
    C38(39)   R28       4
    C38(39)   R29       9
    C38(39)   R30       7
    C38(39)   R31       17
    C38(39)   R32       6
    C38(39)   R33       16
    C38(39)   R34       18
    C38(39)   R35       17
    C38(39)   R36       3
    C38(39)   R37       1
    C38(39)   R38       1
    C39(39)   OBJ       5
    C39(39)   R0        5
    C39(39)   R1        17
    C39(39)   R2        -1
    C39(39)   R3        15
    C39(39)   R4        16
    C39(39)   R5        9
    C39(39)   R6        8
    C39(39)   R7        6
    C39(39)   R8        2
    C39(39)   R9        -1
    C39(39)   R10       3
    C39(39)   R11       8
    C39(39)   R12       5
    C39(39)   R13       9
    C39(39)   R14       2
    C39(39)   R15       10
    C39(39)   R16       2
    C39(39)   R17       8
    C39(39)   R18       11
    C39(39)   R19       1
    C39(39)   R20       6
    C39(39)   R21       15
    C39(39)   R22       15
    C39(39)   R23       7
    C39(39)   R24       13
    C39(39)   R25       15
    C39(39)   R26       18
    C39(39)   R27       6
    C39(39)   R28       19
    C39(39)   R29       8
    C39(39)   R31       14
    C39(39)   R32       17
    C39(39)   R33       10
    C39(39)   R34       8
    C39(39)   R35       10
    C39(39)   R36       15
    C39(39)   R37       12
    C39(39)   R38       5
    C39(39)   R39       3
    C40(1)    R1        1
    C41(1)    R2        1
    C42(1)    R3        1
    C43(1)    R4        1
    C44(1)    R5        1
    C45(1)    R6        1
    C46(1)    R7        1
    C47(1)    R8        1
    C48(1)    R9        1
    C49(1)    R10       1
    C50(1)    R11       1
    C51(1)    R12       1
    C52(1)    R13       1
    C53(1)    R14       1
    C54(1)    R15       1
    C55(1)    R16       1
    C56(1)    R17       1
    C57(1)    R18       1
    C58(1)    R19       1
    C59(1)    R20       1
    C60(1)    R21       1
    C61(1)    R22       1
    C62(1)    R23       1
    C63(1)    R24       1
    C64(1)    R25       1
    C65(1)    R26       1
    C66(1)    R27       1
    C67(1)    R28       1
    C68(1)    R29       1
    C69(1)    R30       1
    C70(1)    R31       1
    C71(1)    R32       1
    C72(1)    R33       1
    C73(1)    R34       1
    C74(1)    R35       1
    C75(1)    R36       1
    C76(1)    R37       1
    C77(1)    R38       1
    C78(1)    R39       1
    C79(1)    R40       1
RHS
    RHS1      R0        -6.5544444444444446e+02
    RHS1      R1        66
    RHS1      R2        72
    RHS1      R3        82
    RHS1      R4        56
    RHS1      R5        94
    RHS1      R6        57
    RHS1      R7        67
    RHS1      R8        58
    RHS1      R9        73
    RHS1      R10       72
    RHS1      R11       86
    RHS1      R12       88
    RHS1      R13       53
    RHS1      R14       51
    RHS1      R15       50
    RHS1      R16       75
    RHS1      R17       53
    RHS1      R18       52
    RHS1      R19       53
    RHS1      R20       72
    RHS1      R21       66
    RHS1      R22       68
    RHS1      R23       59
    RHS1      R24       68
    RHS1      R25       93
    RHS1      R26       59
    RHS1      R27       92
    RHS1      R28       61
    RHS1      R29       57
    RHS1      R30       95
    RHS1      R31       88
    RHS1      R32       74
    RHS1      R33       60
    RHS1      R34       72
    RHS1      R35       78
    RHS1      R36       99
    RHS1      R37       85
    RHS1      R38       84
    RHS1      R39       67
    RHS1      R40       12
BOUNDS
 UP BND1      I0(3)     1
 UP BND1      I1(3)     1
 UP BND1      I2(3)     1
 UP BND1      I3(3)     1
 UP BND1      I4(3)     1
 UP BND1      I5(3)     1
 UP BND1      I6(3)     1
 UP BND1      I7(3)     1
 UP BND1      I8(3)     1
 UP BND1      I9(3)     1
 UP BND1      I10(3)    1
 UP BND1      I11(3)    1
 UP BND1      I12(3)    1
 UP BND1      I13(3)    1
 UP BND1      I14(3)    1
 UP BND1      I15(3)    1
 UP BND1      I16(3)    1
 UP BND1      I17(3)    1
 UP BND1      I18(3)    1
 UP BND1      I19(2)    1
 UP BND1      I20(3)    1
 UP BND1      I21(3)    1
 UP BND1      I22(3)    1
 UP BND1      I23(3)    1
 UP BND1      I24(3)    1
 UP BND1      I25(3)    1
 UP BND1      I26(3)    1
 UP BND1      I27(3)    1
 UP BND1      I28(3)    1
 UP BND1      I29(3)    1
 UP BND1      I30(3)    1
 UP BND1      I31(3)    1
 UP BND1      I32(3)    1
 UP BND1      I33(3)    1
 UP BND1      I34(3)    1
 UP BND1      I35(3)    1
 UP BND1      I36(3)    1
 UP BND1      I37(3)    1
ENDATA
